; benchmark generated from python API
(set-info :status unknown)
(declare-fun cell_1_6 () Int)
(declare-fun cell_1_7 () Int)
(declare-fun cell_2_3 () Int)
(declare-fun cell_2_7 () Int)
(declare-fun cell_3_2 () Int)
(declare-fun cell_3_6 () Int)
(declare-fun cell_4_4 () Int)
(declare-fun cell_4_9 () Int)
(declare-fun cell_5_1 () Int)
(declare-fun cell_5_8 () Int)
(declare-fun cell_6_1 () Int)
(declare-fun cell_6_4 () Int)
(declare-fun cell_7_5 () Int)
(declare-fun cell_8_8 () Int)
(declare-fun cell_9_3 () Int)
(declare-fun cell_1_1 () Int)
(declare-fun cell_2_1 () Int)
(declare-fun cell_3_1 () Int)
(declare-fun cell_4_1 () Int)
(declare-fun cell_7_1 () Int)
(declare-fun cell_8_1 () Int)
(declare-fun cell_9_1 () Int)
(declare-fun cell_1_2 () Int)
(declare-fun cell_2_2 () Int)
(declare-fun cell_4_2 () Int)
(declare-fun cell_5_2 () Int)
(declare-fun cell_6_2 () Int)
(declare-fun cell_7_2 () Int)
(declare-fun cell_8_2 () Int)
(declare-fun cell_9_2 () Int)
(declare-fun cell_1_3 () Int)
(declare-fun cell_3_3 () Int)
(declare-fun cell_4_3 () Int)
(declare-fun cell_5_3 () Int)
(declare-fun cell_6_3 () Int)
(declare-fun cell_7_3 () Int)
(declare-fun cell_8_3 () Int)
(declare-fun cell_1_4 () Int)
(declare-fun cell_2_4 () Int)
(declare-fun cell_3_4 () Int)
(declare-fun cell_5_4 () Int)
(declare-fun cell_7_4 () Int)
(declare-fun cell_8_4 () Int)
(declare-fun cell_9_4 () Int)
(declare-fun cell_1_5 () Int)
(declare-fun cell_2_5 () Int)
(declare-fun cell_3_5 () Int)
(declare-fun cell_4_5 () Int)
(declare-fun cell_5_5 () Int)
(declare-fun cell_6_5 () Int)
(declare-fun cell_8_5 () Int)
(declare-fun cell_9_5 () Int)
(declare-fun cell_2_6 () Int)
(declare-fun cell_4_6 () Int)
(declare-fun cell_5_6 () Int)
(declare-fun cell_6_6 () Int)
(declare-fun cell_7_6 () Int)
(declare-fun cell_8_6 () Int)
(declare-fun cell_9_6 () Int)
(declare-fun cell_3_7 () Int)
(declare-fun cell_4_7 () Int)
(declare-fun cell_5_7 () Int)
(declare-fun cell_6_7 () Int)
(declare-fun cell_7_7 () Int)
(declare-fun cell_8_7 () Int)
(declare-fun cell_9_7 () Int)
(declare-fun cell_1_8 () Int)
(declare-fun cell_2_8 () Int)
(declare-fun cell_3_8 () Int)
(declare-fun cell_4_8 () Int)
(declare-fun cell_6_8 () Int)
(declare-fun cell_7_8 () Int)
(declare-fun cell_9_8 () Int)
(declare-fun cell_1_9 () Int)
(declare-fun cell_2_9 () Int)
(declare-fun cell_3_9 () Int)
(declare-fun cell_5_9 () Int)
(declare-fun cell_6_9 () Int)
(declare-fun cell_7_9 () Int)
(declare-fun cell_8_9 () Int)
(declare-fun cell_9_9 () Int)
(assert
 (= cell_1_6 1))
(assert
 (= cell_1_7 2))
(assert
 (= cell_2_3 2))
(assert
 (= cell_2_7 1))
(assert
 (= cell_3_2 1))
(assert
 (= cell_3_6 2))
(assert
 (= cell_4_4 2))
(assert
 (= cell_4_9 1))
(assert
 (= cell_5_1 1))
(assert
 (= cell_5_8 2))
(assert
 (= cell_6_1 2))
(assert
 (= cell_6_4 1))
(assert
 (= cell_7_5 1))
(assert
 (= cell_8_8 1))
(assert
 (= cell_9_3 1))
(assert
 (let (($x563 (= cell_1_1 9)))
 (let (($x2467 (= cell_1_1 8)))
 (let (($x7063 (= cell_1_1 7)))
 (let (($x2508 (= cell_1_1 6)))
 (let (($x774 (= cell_1_1 5)))
 (let (($x1370 (= cell_1_1 4)))
 (let (($x1987 (= cell_1_1 3)))
 (let (($x3081 (= cell_1_1 2)))
 (let (($x1803 (= cell_1_1 1)))
 (or $x1803 $x3081 $x1987 $x1370 $x774 $x2508 $x7063 $x2467 $x563)))))))))))
(assert
 (let (($x6793 (= cell_2_1 9)))
 (let (($x3887 (= cell_2_1 8)))
 (let (($x1523 (= cell_2_1 7)))
 (let (($x94 (= cell_2_1 6)))
 (let (($x3062 (= cell_2_1 5)))
 (let (($x1871 (= cell_2_1 4)))
 (let (($x1587 (= cell_2_1 3)))
 (let (($x1772 (= cell_2_1 2)))
 (let (($x3190 (= cell_2_1 1)))
 (or $x3190 $x1772 $x1587 $x1871 $x3062 $x94 $x1523 $x3887 $x6793)))))))))))
(assert
 (let (($x3153 (= cell_3_1 9)))
 (let (($x1889 (= cell_3_1 8)))
 (let (($x1991 (= cell_3_1 7)))
 (let (($x3886 (= cell_3_1 6)))
 (let (($x3401 (= cell_3_1 5)))
 (let (($x1503 (= cell_3_1 4)))
 (let (($x3567 (= cell_3_1 3)))
 (let (($x1645 (= cell_3_1 2)))
 (let (($x7796 (= cell_3_1 1)))
 (or $x7796 $x1645 $x3567 $x1503 $x3401 $x3886 $x1991 $x1889 $x3153)))))))))))
(assert
 (let (($x3354 (= cell_4_1 9)))
 (let (($x3523 (= cell_4_1 8)))
 (let (($x1613 (= cell_4_1 7)))
 (let (($x542 (= cell_4_1 6)))
 (let (($x3517 (= cell_4_1 5)))
 (let (($x235 (= cell_4_1 4)))
 (let (($x930 (= cell_4_1 3)))
 (let (($x660 (= cell_4_1 2)))
 (let (($x145 (= cell_4_1 1)))
 (or $x145 $x660 $x930 $x235 $x3517 $x542 $x1613 $x3523 $x3354)))))))))))
(assert
 (let (($x7314 (= cell_5_1 1)))
 (or $x7314 (= cell_5_1 2) (= cell_5_1 3) (= cell_5_1 4) (= cell_5_1 5) (= cell_5_1 6) (= cell_5_1 7) (= cell_5_1 8) (= cell_5_1 9))))
(assert
 (let (($x2035 (= cell_6_1 2)))
 (or (= cell_6_1 1) $x2035 (= cell_6_1 3) (= cell_6_1 4) (= cell_6_1 5) (= cell_6_1 6) (= cell_6_1 7) (= cell_6_1 8) (= cell_6_1 9))))
(assert
 (let (($x2212 (= cell_7_1 9)))
 (let (($x6962 (= cell_7_1 8)))
 (let (($x2461 (= cell_7_1 7)))
 (let (($x2047 (= cell_7_1 6)))
 (let (($x431 (= cell_7_1 5)))
 (let (($x655 (= cell_7_1 4)))
 (let (($x3142 (= cell_7_1 3)))
 (let (($x768 (= cell_7_1 2)))
 (let (($x2644 (= cell_7_1 1)))
 (or $x2644 $x768 $x3142 $x655 $x431 $x2047 $x2461 $x6962 $x2212)))))))))))
(assert
 (let (($x1251 (= cell_8_1 9)))
 (let (($x174 (= cell_8_1 8)))
 (let (($x1748 (= cell_8_1 7)))
 (let (($x3254 (= cell_8_1 6)))
 (let (($x763 (= cell_8_1 5)))
 (let (($x904 (= cell_8_1 4)))
 (let (($x2471 (= cell_8_1 3)))
 (let (($x7643 (= cell_8_1 2)))
 (let (($x2157 (= cell_8_1 1)))
 (or $x2157 $x7643 $x2471 $x904 $x763 $x3254 $x1748 $x174 $x1251)))))))))))
(assert
 (let (($x828 (= cell_9_1 9)))
 (let (($x612 (= cell_9_1 8)))
 (let (($x4180 (= cell_9_1 7)))
 (let (($x746 (= cell_9_1 6)))
 (let (($x1348 (= cell_9_1 5)))
 (let (($x2276 (= cell_9_1 4)))
 (let (($x1030 (= cell_9_1 3)))
 (let (($x3235 (= cell_9_1 2)))
 (let (($x2876 (= cell_9_1 1)))
 (or $x2876 $x3235 $x1030 $x2276 $x1348 $x746 $x4180 $x612 $x828)))))))))))
(assert
 (let (($x347 (= cell_1_2 9)))
 (let (($x3862 (= cell_1_2 8)))
 (let (($x7681 (= cell_1_2 7)))
 (let (($x1973 (= cell_1_2 6)))
 (let (($x2377 (= cell_1_2 5)))
 (let (($x7651 (= cell_1_2 4)))
 (let (($x884 (= cell_1_2 3)))
 (let (($x6841 (= cell_1_2 2)))
 (let (($x2059 (= cell_1_2 1)))
 (or $x2059 $x6841 $x884 $x7651 $x2377 $x1973 $x7681 $x3862 $x347)))))))))))
(assert
 (let (($x587 (= cell_2_2 9)))
 (let (($x1364 (= cell_2_2 8)))
 (let (($x399 (= cell_2_2 7)))
 (let (($x6689 (= cell_2_2 6)))
 (let (($x49 (= cell_2_2 5)))
 (let (($x1443 (= cell_2_2 4)))
 (let (($x3157 (= cell_2_2 3)))
 (let (($x703 (= cell_2_2 2)))
 (let (($x1851 (= cell_2_2 1)))
 (or $x1851 $x703 $x3157 $x1443 $x49 $x6689 $x399 $x1364 $x587)))))))))))
(assert
 (let (($x2842 (= cell_3_2 1)))
 (or $x2842 (= cell_3_2 2) (= cell_3_2 3) (= cell_3_2 4) (= cell_3_2 5) (= cell_3_2 6) (= cell_3_2 7) (= cell_3_2 8) (= cell_3_2 9))))
(assert
 (let (($x3176 (= cell_4_2 9)))
 (let (($x3331 (= cell_4_2 8)))
 (let (($x336 (= cell_4_2 7)))
 (let (($x737 (= cell_4_2 6)))
 (let (($x366 (= cell_4_2 5)))
 (let (($x2511 (= cell_4_2 4)))
 (let (($x1697 (= cell_4_2 3)))
 (let (($x7294 (= cell_4_2 2)))
 (let (($x177 (= cell_4_2 1)))
 (or $x177 $x7294 $x1697 $x2511 $x366 $x737 $x336 $x3331 $x3176)))))))))))
(assert
 (let (($x936 (= cell_5_2 9)))
 (let (($x2013 (= cell_5_2 8)))
 (let (($x1864 (= cell_5_2 7)))
 (let (($x707 (= cell_5_2 6)))
 (let (($x1240 (= cell_5_2 5)))
 (let (($x427 (= cell_5_2 4)))
 (let (($x933 (= cell_5_2 3)))
 (let (($x2574 (= cell_5_2 2)))
 (let (($x218 (= cell_5_2 1)))
 (or $x218 $x2574 $x933 $x427 $x1240 $x707 $x1864 $x2013 $x936)))))))))))
(assert
 (let (($x37 (= cell_6_2 9)))
 (let (($x1223 (= cell_6_2 8)))
 (let (($x168 (= cell_6_2 7)))
 (let (($x7663 (= cell_6_2 6)))
 (let (($x7866 (= cell_6_2 5)))
 (let (($x553 (= cell_6_2 4)))
 (let (($x2086 (= cell_6_2 3)))
 (let (($x7982 (= cell_6_2 2)))
 (let (($x1977 (= cell_6_2 1)))
 (or $x1977 $x7982 $x2086 $x553 $x7866 $x7663 $x168 $x1223 $x37)))))))))))
(assert
 (let (($x3429 (= cell_7_2 9)))
 (let (($x1527 (= cell_7_2 8)))
 (let (($x2627 (= cell_7_2 7)))
 (let (($x801 (= cell_7_2 6)))
 (let (($x2907 (= cell_7_2 5)))
 (let (($x1250 (= cell_7_2 4)))
 (let (($x7411 (= cell_7_2 3)))
 (let (($x8025 (= cell_7_2 2)))
 (let (($x7753 (= cell_7_2 1)))
 (or $x7753 $x8025 $x7411 $x1250 $x2907 $x801 $x2627 $x1527 $x3429)))))))))))
(assert
 (let (($x3827 (= cell_8_2 9)))
 (let (($x40 (= cell_8_2 8)))
 (let (($x526 (= cell_8_2 7)))
 (let (($x3093 (= cell_8_2 6)))
 (let (($x3279 (= cell_8_2 5)))
 (let (($x2091 (= cell_8_2 4)))
 (let (($x21 (= cell_8_2 3)))
 (let (($x2878 (= cell_8_2 2)))
 (let (($x3728 (= cell_8_2 1)))
 (or $x3728 $x2878 $x21 $x2091 $x3279 $x3093 $x526 $x40 $x3827)))))))))))
(assert
 (let (($x3052 (= cell_9_2 9)))
 (let (($x3181 (= cell_9_2 8)))
 (let (($x2179 (= cell_9_2 7)))
 (let (($x2786 (= cell_9_2 6)))
 (let (($x2045 (= cell_9_2 5)))
 (let (($x373 (= cell_9_2 4)))
 (let (($x871 (= cell_9_2 3)))
 (let (($x2689 (= cell_9_2 2)))
 (let (($x313 (= cell_9_2 1)))
 (or $x313 $x2689 $x871 $x373 $x2045 $x2786 $x2179 $x3181 $x3052)))))))))))
(assert
 (let (($x2937 (= cell_1_3 9)))
 (let (($x3786 (= cell_1_3 8)))
 (let (($x3230 (= cell_1_3 7)))
 (let (($x1095 (= cell_1_3 6)))
 (let (($x2620 (= cell_1_3 5)))
 (let (($x1282 (= cell_1_3 4)))
 (let (($x7512 (= cell_1_3 3)))
 (let (($x2936 (= cell_1_3 2)))
 (let (($x3809 (= cell_1_3 1)))
 (or $x3809 $x2936 $x7512 $x1282 $x2620 $x1095 $x3230 $x3786 $x2937)))))))))))
(assert
 (let (($x572 (= cell_2_3 2)))
 (or (= cell_2_3 1) $x572 (= cell_2_3 3) (= cell_2_3 4) (= cell_2_3 5) (= cell_2_3 6) (= cell_2_3 7) (= cell_2_3 8) (= cell_2_3 9))))
(assert
 (let (($x1923 (= cell_3_3 9)))
 (let (($x324 (= cell_3_3 8)))
 (let (($x1845 (= cell_3_3 7)))
 (let (($x1194 (= cell_3_3 6)))
 (let (($x3044 (= cell_3_3 5)))
 (let (($x1183 (= cell_3_3 4)))
 (let (($x2840 (= cell_3_3 3)))
 (let (($x4175 (= cell_3_3 2)))
 (let (($x1690 (= cell_3_3 1)))
 (or $x1690 $x4175 $x2840 $x1183 $x3044 $x1194 $x1845 $x324 $x1923)))))))))))
(assert
 (let (($x432 (= cell_4_3 9)))
 (let (($x1471 (= cell_4_3 8)))
 (let (($x3902 (= cell_4_3 7)))
 (let (($x59 (= cell_4_3 6)))
 (let (($x3588 (= cell_4_3 5)))
 (let (($x2153 (= cell_4_3 4)))
 (let (($x1536 (= cell_4_3 3)))
 (let (($x3716 (= cell_4_3 2)))
 (let (($x3275 (= cell_4_3 1)))
 (or $x3275 $x3716 $x1536 $x2153 $x3588 $x59 $x3902 $x1471 $x432)))))))))))
(assert
 (let (($x2760 (= cell_5_3 9)))
 (let (($x1712 (= cell_5_3 8)))
 (let (($x1596 (= cell_5_3 7)))
 (let (($x29 (= cell_5_3 6)))
 (let (($x1806 (= cell_5_3 5)))
 (let (($x3076 (= cell_5_3 4)))
 (let (($x1347 (= cell_5_3 3)))
 (let (($x7993 (= cell_5_3 2)))
 (let (($x1703 (= cell_5_3 1)))
 (or $x1703 $x7993 $x1347 $x3076 $x1806 $x29 $x1596 $x1712 $x2760)))))))))))
(assert
 (let (($x1903 (= cell_6_3 9)))
 (let (($x7489 (= cell_6_3 8)))
 (let (($x1997 (= cell_6_3 7)))
 (let (($x2058 (= cell_6_3 6)))
 (let (($x574 (= cell_6_3 5)))
 (let (($x4203 (= cell_6_3 4)))
 (let (($x2781 (= cell_6_3 3)))
 (let (($x522 (= cell_6_3 2)))
 (let (($x451 (= cell_6_3 1)))
 (or $x451 $x522 $x2781 $x4203 $x574 $x2058 $x1997 $x7489 $x1903)))))))))))
(assert
 (let (($x2960 (= cell_7_3 9)))
 (let (($x7315 (= cell_7_3 8)))
 (let (($x1707 (= cell_7_3 7)))
 (let (($x1365 (= cell_7_3 6)))
 (let (($x2098 (= cell_7_3 5)))
 (let (($x3077 (= cell_7_3 4)))
 (let (($x3402 (= cell_7_3 3)))
 (let (($x2961 (= cell_7_3 2)))
 (let (($x7752 (= cell_7_3 1)))
 (or $x7752 $x2961 $x3402 $x3077 $x2098 $x1365 $x1707 $x7315 $x2960)))))))))))
(assert
 (let (($x1450 (= cell_8_3 9)))
 (let (($x3702 (= cell_8_3 8)))
 (let (($x196 (= cell_8_3 7)))
 (let (($x2564 (= cell_8_3 6)))
 (let (($x7235 (= cell_8_3 5)))
 (let (($x1718 (= cell_8_3 4)))
 (let (($x1742 (= cell_8_3 3)))
 (let (($x1911 (= cell_8_3 2)))
 (let (($x2613 (= cell_8_3 1)))
 (or $x2613 $x1911 $x1742 $x1718 $x7235 $x2564 $x196 $x3702 $x1450)))))))))))
(assert
 (let (($x1096 (= cell_9_3 1)))
 (or $x1096 (= cell_9_3 2) (= cell_9_3 3) (= cell_9_3 4) (= cell_9_3 5) (= cell_9_3 6) (= cell_9_3 7) (= cell_9_3 8) (= cell_9_3 9))))
(assert
 (let (($x2274 (= cell_1_4 9)))
 (let (($x236 (= cell_1_4 8)))
 (let (($x1063 (= cell_1_4 7)))
 (let (($x3334 (= cell_1_4 6)))
 (let (($x717 (= cell_1_4 5)))
 (let (($x2214 (= cell_1_4 4)))
 (let (($x4134 (= cell_1_4 3)))
 (let (($x2994 (= cell_1_4 2)))
 (let (($x1985 (= cell_1_4 1)))
 (or $x1985 $x2994 $x4134 $x2214 $x717 $x3334 $x1063 $x236 $x2274)))))))))))
(assert
 (let (($x91 (= cell_2_4 9)))
 (let (($x2296 (= cell_2_4 8)))
 (let (($x1575 (= cell_2_4 7)))
 (let (($x2528 (= cell_2_4 6)))
 (let (($x1203 (= cell_2_4 5)))
 (let (($x3590 (= cell_2_4 4)))
 (let (($x2841 (= cell_2_4 3)))
 (let (($x1145 (= cell_2_4 2)))
 (let (($x456 (= cell_2_4 1)))
 (or $x456 $x1145 $x2841 $x3590 $x1203 $x2528 $x1575 $x2296 $x91)))))))))))
(assert
 (let (($x2161 (= cell_3_4 9)))
 (let (($x191 (= cell_3_4 8)))
 (let (($x1469 (= cell_3_4 7)))
 (let (($x3246 (= cell_3_4 6)))
 (let (($x3499 (= cell_3_4 5)))
 (let (($x4211 (= cell_3_4 4)))
 (let (($x3080 (= cell_3_4 3)))
 (let (($x2957 (= cell_3_4 2)))
 (let (($x2197 (= cell_3_4 1)))
 (or $x2197 $x2957 $x3080 $x4211 $x3499 $x3246 $x1469 $x191 $x2161)))))))))))
(assert
 (let (($x358 (= cell_4_4 2)))
 (or (= cell_4_4 1) $x358 (= cell_4_4 3) (= cell_4_4 4) (= cell_4_4 5) (= cell_4_4 6) (= cell_4_4 7) (= cell_4_4 8) (= cell_4_4 9))))
(assert
 (let (($x2357 (= cell_5_4 9)))
 (let (($x1327 (= cell_5_4 8)))
 (let (($x6581 (= cell_5_4 7)))
 (let (($x3271 (= cell_5_4 6)))
 (let (($x305 (= cell_5_4 5)))
 (let (($x7400 (= cell_5_4 4)))
 (let (($x4167 (= cell_5_4 3)))
 (let (($x2896 (= cell_5_4 2)))
 (let (($x1604 (= cell_5_4 1)))
 (or $x1604 $x2896 $x4167 $x7400 $x305 $x3271 $x6581 $x1327 $x2357)))))))))))
(assert
 (let (($x3210 (= cell_6_4 1)))
 (or $x3210 (= cell_6_4 2) (= cell_6_4 3) (= cell_6_4 4) (= cell_6_4 5) (= cell_6_4 6) (= cell_6_4 7) (= cell_6_4 8) (= cell_6_4 9))))
(assert
 (let (($x2070 (= cell_7_4 9)))
 (let (($x1724 (= cell_7_4 8)))
 (let (($x1804 (= cell_7_4 7)))
 (let (($x835 (= cell_7_4 6)))
 (let (($x2704 (= cell_7_4 5)))
 (let (($x512 (= cell_7_4 4)))
 (let (($x3372 (= cell_7_4 3)))
 (let (($x1039 (= cell_7_4 2)))
 (let (($x3221 (= cell_7_4 1)))
 (or $x3221 $x1039 $x3372 $x512 $x2704 $x835 $x1804 $x1724 $x2070)))))))))))
(assert
 (let (($x6810 (= cell_8_4 9)))
 (let (($x561 (= cell_8_4 8)))
 (let (($x1358 (= cell_8_4 7)))
 (let (($x799 (= cell_8_4 6)))
 (let (($x346 (= cell_8_4 5)))
 (let (($x548 (= cell_8_4 4)))
 (let (($x4152 (= cell_8_4 3)))
 (let (($x1066 (= cell_8_4 2)))
 (let (($x1544 (= cell_8_4 1)))
 (or $x1544 $x1066 $x4152 $x548 $x346 $x799 $x1358 $x561 $x6810)))))))))))
(assert
 (let (($x862 (= cell_9_4 2)))
 (let (($x939 (= cell_9_4 1)))
 (or $x939 $x862 (= cell_9_4 3) (= cell_9_4 4) (= cell_9_4 5) (= cell_9_4 6) (= cell_9_4 7) (= cell_9_4 8) (= cell_9_4 9)))))
(assert
 (let (($x3390 (= cell_1_5 9)))
 (let (($x3270 (= cell_1_5 8)))
 (let (($x926 (= cell_1_5 7)))
 (let (($x2541 (= cell_1_5 6)))
 (let (($x1140 (= cell_1_5 5)))
 (let (($x1763 (= cell_1_5 4)))
 (let (($x24 (= cell_1_5 3)))
 (let (($x2514 (= cell_1_5 2)))
 (let (($x2930 (= cell_1_5 1)))
 (or $x2930 $x2514 $x24 $x1763 $x1140 $x2541 $x926 $x3270 $x3390)))))))))))
(assert
 (let (($x2008 (= cell_2_5 9)))
 (let (($x1018 (= cell_2_5 8)))
 (let (($x68 (= cell_2_5 7)))
 (let (($x4153 (= cell_2_5 6)))
 (let (($x1591 (= cell_2_5 5)))
 (let (($x4007 (= cell_2_5 4)))
 (let (($x192 (= cell_2_5 3)))
 (let (($x3376 (= cell_2_5 2)))
 (let (($x2344 (= cell_2_5 1)))
 (or $x2344 $x3376 $x192 $x4007 $x1591 $x4153 $x68 $x1018 $x2008)))))))))))
(assert
 (let (($x455 (= cell_3_5 9)))
 (let (($x1821 (= cell_3_5 8)))
 (let (($x3308 (= cell_3_5 7)))
 (let (($x167 (= cell_3_5 6)))
 (let (($x3022 (= cell_3_5 5)))
 (let (($x2239 (= cell_3_5 4)))
 (let (($x916 (= cell_3_5 3)))
 (let (($x8016 (= cell_3_5 2)))
 (let (($x3528 (= cell_3_5 1)))
 (or $x3528 $x8016 $x916 $x2239 $x3022 $x167 $x3308 $x1821 $x455)))))))))))
(assert
 (let (($x2952 (= cell_4_5 9)))
 (let (($x989 (= cell_4_5 8)))
 (let (($x3876 (= cell_4_5 7)))
 (let (($x67 (= cell_4_5 6)))
 (let (($x3083 (= cell_4_5 5)))
 (let (($x2998 (= cell_4_5 4)))
 (let (($x1815 (= cell_4_5 3)))
 (let (($x1905 (= cell_4_5 2)))
 (let (($x2340 (= cell_4_5 1)))
 (or $x2340 $x1905 $x1815 $x2998 $x3083 $x67 $x3876 $x989 $x2952)))))))))))
(assert
 (let (($x3399 (= cell_5_5 9)))
 (let (($x3987 (= cell_5_5 8)))
 (let (($x815 (= cell_5_5 7)))
 (let (($x2773 (= cell_5_5 6)))
 (let (($x3654 (= cell_5_5 5)))
 (let (($x3448 (= cell_5_5 4)))
 (let (($x4020 (= cell_5_5 3)))
 (let (($x1848 (= cell_5_5 2)))
 (let (($x2892 (= cell_5_5 1)))
 (or $x2892 $x1848 $x4020 $x3448 $x3654 $x2773 $x815 $x3987 $x3399)))))))))))
(assert
 (let (($x917 (= cell_6_5 9)))
 (let (($x2475 (= cell_6_5 8)))
 (let (($x3996 (= cell_6_5 7)))
 (let (($x1968 (= cell_6_5 6)))
 (let (($x3197 (= cell_6_5 5)))
 (let (($x7970 (= cell_6_5 4)))
 (let (($x3500 (= cell_6_5 3)))
 (let (($x651 (= cell_6_5 2)))
 (let (($x3985 (= cell_6_5 1)))
 (or $x3985 $x651 $x3500 $x7970 $x3197 $x1968 $x3996 $x2475 $x917)))))))))))
(assert
 (let (($x7330 (= cell_7_5 1)))
 (or $x7330 (= cell_7_5 2) (= cell_7_5 3) (= cell_7_5 4) (= cell_7_5 5) (= cell_7_5 6) (= cell_7_5 7) (= cell_7_5 8) (= cell_7_5 9))))
(assert
 (let (($x6766 (= cell_8_5 9)))
 (let (($x406 (= cell_8_5 8)))
 (let (($x1120 (= cell_8_5 7)))
 (let (($x7683 (= cell_8_5 6)))
 (let (($x3144 (= cell_8_5 5)))
 (let (($x7375 (= cell_8_5 4)))
 (let (($x646 (= cell_8_5 3)))
 (let (($x442 (= cell_8_5 2)))
 (let (($x6733 (= cell_8_5 1)))
 (or $x6733 $x442 $x646 $x7375 $x3144 $x7683 $x1120 $x406 $x6766)))))))))))
(assert
 (let (($x3897 (= cell_9_5 1)))
 (or $x3897 (= cell_9_5 2) (= cell_9_5 3) (= cell_9_5 4) (= cell_9_5 5) (= cell_9_5 6) (= cell_9_5 7) (= cell_9_5 8) (= cell_9_5 9))))
(assert
 (let (($x3993 (= cell_1_6 1)))
 (or $x3993 (= cell_1_6 2) (= cell_1_6 3) (= cell_1_6 4) (= cell_1_6 5) (= cell_1_6 6) (= cell_1_6 7) (= cell_1_6 8) (= cell_1_6 9))))
(assert
 (let (($x1530 (= cell_2_6 9)))
 (let (($x2183 (= cell_2_6 8)))
 (let (($x2294 (= cell_2_6 7)))
 (let (($x1993 (= cell_2_6 6)))
 (let (($x619 (= cell_2_6 5)))
 (let (($x3734 (= cell_2_6 4)))
 (let (($x2273 (= cell_2_6 3)))
 (let (($x2052 (= cell_2_6 2)))
 (let (($x752 (= cell_2_6 1)))
 (or $x752 $x2052 $x2273 $x3734 $x619 $x1993 $x2294 $x2183 $x1530)))))))))))
(assert
 (let (($x454 (= cell_3_6 2)))
 (or (= cell_3_6 1) $x454 (= cell_3_6 3) (= cell_3_6 4) (= cell_3_6 5) (= cell_3_6 6) (= cell_3_6 7) (= cell_3_6 8) (= cell_3_6 9))))
(assert
 (let (($x1644 (= cell_4_6 9)))
 (let (($x1938 (= cell_4_6 8)))
 (let (($x3355 (= cell_4_6 7)))
 (let (($x1728 (= cell_4_6 6)))
 (let (($x4069 (= cell_4_6 5)))
 (let (($x7350 (= cell_4_6 4)))
 (let (($x2066 (= cell_4_6 3)))
 (let (($x912 (= cell_4_6 2)))
 (let (($x78 (= cell_4_6 1)))
 (or $x78 $x912 $x2066 $x7350 $x4069 $x1728 $x3355 $x1938 $x1644)))))))))))
(assert
 (let (($x1257 (= cell_5_6 9)))
 (let (($x1849 (= cell_5_6 8)))
 (let (($x1428 (= cell_5_6 7)))
 (let (($x340 (= cell_5_6 6)))
 (let (($x1920 (= cell_5_6 5)))
 (let (($x2559 (= cell_5_6 4)))
 (let (($x1496 (= cell_5_6 3)))
 (let (($x584 (= cell_5_6 2)))
 (let (($x2271 (= cell_5_6 1)))
 (or $x2271 $x584 $x1496 $x2559 $x1920 $x340 $x1428 $x1849 $x1257)))))))))))
(assert
 (let (($x924 (= cell_6_6 2)))
 (let (($x4068 (= cell_6_6 1)))
 (or $x4068 $x924 (= cell_6_6 3) (= cell_6_6 4) (= cell_6_6 5) (= cell_6_6 6) (= cell_6_6 7) (= cell_6_6 8) (= cell_6_6 9)))))
(assert
 (let (($x3696 (= cell_7_6 2)))
 (let (($x1840 (= cell_7_6 1)))
 (or $x1840 $x3696 (= cell_7_6 3) (= cell_7_6 4) (= cell_7_6 5) (= cell_7_6 6) (= cell_7_6 7) (= cell_7_6 8) (= cell_7_6 9)))))
(assert
 (let (($x6838 (= cell_8_6 9)))
 (let (($x1692 (= cell_8_6 8)))
 (let (($x7382 (= cell_8_6 7)))
 (let (($x844 (= cell_8_6 6)))
 (let (($x2542 (= cell_8_6 5)))
 (let (($x6708 (= cell_8_6 4)))
 (let (($x1309 (= cell_8_6 3)))
 (let (($x2524 (= cell_8_6 2)))
 (let (($x485 (= cell_8_6 1)))
 (or $x485 $x2524 $x1309 $x6708 $x2542 $x844 $x7382 $x1692 $x6838)))))))))))
(assert
 (let (($x899 (= cell_9_6 2)))
 (let (($x1688 (= cell_9_6 1)))
 (or $x1688 $x899 (= cell_9_6 3) (= cell_9_6 4) (= cell_9_6 5) (= cell_9_6 6) (= cell_9_6 7) (= cell_9_6 8) (= cell_9_6 9)))))
(assert
 (let (($x3939 (= cell_1_7 2)))
 (or (= cell_1_7 1) $x3939 (= cell_1_7 3) (= cell_1_7 4) (= cell_1_7 5) (= cell_1_7 6) (= cell_1_7 7) (= cell_1_7 8) (= cell_1_7 9))))
(assert
 (let (($x3483 (= cell_2_7 1)))
 (or $x3483 (= cell_2_7 2) (= cell_2_7 3) (= cell_2_7 4) (= cell_2_7 5) (= cell_2_7 6) (= cell_2_7 7) (= cell_2_7 8) (= cell_2_7 9))))
(assert
 (let (($x2082 (= cell_3_7 2)))
 (let (($x3460 (= cell_3_7 1)))
 (or $x3460 $x2082 (= cell_3_7 3) (= cell_3_7 4) (= cell_3_7 5) (= cell_3_7 6) (= cell_3_7 7) (= cell_3_7 8) (= cell_3_7 9)))))
(assert
 (let (($x2730 (= cell_4_7 9)))
 (let (($x4179 (= cell_4_7 8)))
 (let (($x3906 (= cell_4_7 7)))
 (let (($x2184 (= cell_4_7 6)))
 (let (($x3954 (= cell_4_7 5)))
 (let (($x249 (= cell_4_7 4)))
 (let (($x7508 (= cell_4_7 3)))
 (let (($x6753 (= cell_4_7 2)))
 (let (($x2662 (= cell_4_7 1)))
 (or $x2662 $x6753 $x7508 $x249 $x3954 $x2184 $x3906 $x4179 $x2730)))))))))))
(assert
 (let (($x1042 (= cell_5_7 9)))
 (let (($x664 (= cell_5_7 8)))
 (let (($x2053 (= cell_5_7 7)))
 (let (($x1461 (= cell_5_7 6)))
 (let (($x1351 (= cell_5_7 5)))
 (let (($x3096 (= cell_5_7 4)))
 (let (($x3947 (= cell_5_7 3)))
 (let (($x4166 (= cell_5_7 2)))
 (let (($x1749 (= cell_5_7 1)))
 (or $x1749 $x4166 $x3947 $x3096 $x1351 $x1461 $x2053 $x664 $x1042)))))))))))
(assert
 (let (($x2821 (= cell_6_7 2)))
 (let (($x1041 (= cell_6_7 1)))
 (or $x1041 $x2821 (= cell_6_7 3) (= cell_6_7 4) (= cell_6_7 5) (= cell_6_7 6) (= cell_6_7 7) (= cell_6_7 8) (= cell_6_7 9)))))
(assert
 (let (($x2279 (= cell_7_7 9)))
 (let (($x2417 (= cell_7_7 8)))
 (let (($x1478 (= cell_7_7 7)))
 (let (($x2932 (= cell_7_7 6)))
 (let (($x1451 (= cell_7_7 5)))
 (let (($x1333 (= cell_7_7 4)))
 (let (($x2884 (= cell_7_7 3)))
 (let (($x3367 (= cell_7_7 2)))
 (let (($x165 (= cell_7_7 1)))
 (or $x165 $x3367 $x2884 $x1333 $x1451 $x2932 $x1478 $x2417 $x2279)))))))))))
(assert
 (let (($x2927 (= cell_8_7 9)))
 (let (($x1626 (= cell_8_7 8)))
 (let (($x7629 (= cell_8_7 7)))
 (let (($x1725 (= cell_8_7 6)))
 (let (($x202 (= cell_8_7 5)))
 (let (($x7349 (= cell_8_7 4)))
 (let (($x146 (= cell_8_7 3)))
 (let (($x268 (= cell_8_7 2)))
 (let (($x3490 (= cell_8_7 1)))
 (or $x3490 $x268 $x146 $x7349 $x202 $x1725 $x7629 $x1626 $x2927)))))))))))
(assert
 (let (($x3989 (= cell_9_7 2)))
 (let (($x2372 (= cell_9_7 1)))
 (or $x2372 $x3989 (= cell_9_7 3) (= cell_9_7 4) (= cell_9_7 5) (= cell_9_7 6) (= cell_9_7 7) (= cell_9_7 8) (= cell_9_7 9)))))
(assert
 (let (($x8017 (= cell_1_8 9)))
 (let (($x6809 (= cell_1_8 8)))
 (let (($x3998 (= cell_1_8 7)))
 (let (($x1758 (= cell_1_8 6)))
 (let (($x3930 (= cell_1_8 5)))
 (let (($x1141 (= cell_1_8 4)))
 (let (($x6961 (= cell_1_8 3)))
 (let (($x1634 (= cell_1_8 2)))
 (let (($x3820 (= cell_1_8 1)))
 (or $x3820 $x1634 $x6961 $x1141 $x3930 $x1758 $x3998 $x6809 $x8017)))))))))))
(assert
 (let (($x240 (= cell_2_8 9)))
 (let (($x920 (= cell_2_8 8)))
 (let (($x622 (= cell_2_8 7)))
 (let (($x2811 (= cell_2_8 6)))
 (let (($x155 (= cell_2_8 5)))
 (let (($x7332 (= cell_2_8 4)))
 (let (($x3649 (= cell_2_8 3)))
 (let (($x2509 (= cell_2_8 2)))
 (let (($x7454 (= cell_2_8 1)))
 (or $x7454 $x2509 $x3649 $x7332 $x155 $x2811 $x622 $x920 $x240)))))))))))
(assert
 (let (($x1947 (= cell_3_8 9)))
 (let (($x294 (= cell_3_8 8)))
 (let (($x6985 (= cell_3_8 7)))
 (let (($x1972 (= cell_3_8 6)))
 (let (($x650 (= cell_3_8 5)))
 (let (($x673 (= cell_3_8 4)))
 (let (($x1729 (= cell_3_8 3)))
 (let (($x2693 (= cell_3_8 2)))
 (let (($x2769 (= cell_3_8 1)))
 (or $x2769 $x2693 $x1729 $x673 $x650 $x1972 $x6985 $x294 $x1947)))))))))))
(assert
 (let (($x4151 (= cell_4_8 9)))
 (let (($x6616 (= cell_4_8 8)))
 (let (($x7659 (= cell_4_8 7)))
 (let (($x2695 (= cell_4_8 6)))
 (let (($x3617 (= cell_4_8 5)))
 (let (($x1335 (= cell_4_8 4)))
 (let (($x187 (= cell_4_8 3)))
 (let (($x7232 (= cell_4_8 2)))
 (let (($x2692 (= cell_4_8 1)))
 (or $x2692 $x7232 $x187 $x1335 $x3617 $x2695 $x7659 $x6616 $x4151)))))))))))
(assert
 (let (($x1533 (= cell_5_8 2)))
 (or (= cell_5_8 1) $x1533 (= cell_5_8 3) (= cell_5_8 4) (= cell_5_8 5) (= cell_5_8 6) (= cell_5_8 7) (= cell_5_8 8) (= cell_5_8 9))))
(assert
 (let (($x1319 (= cell_6_8 9)))
 (let (($x3678 (= cell_6_8 8)))
 (let (($x1610 (= cell_6_8 7)))
 (let (($x7488 (= cell_6_8 6)))
 (let (($x979 (= cell_6_8 5)))
 (let (($x7884 (= cell_6_8 4)))
 (let (($x1713 (= cell_6_8 3)))
 (let (($x7858 (= cell_6_8 2)))
 (let (($x2677 (= cell_6_8 1)))
 (or $x2677 $x7858 $x1713 $x7884 $x979 $x7488 $x1610 $x3678 $x1319)))))))))))
(assert
 (let (($x1525 (= cell_7_8 9)))
 (let (($x1805 (= cell_7_8 8)))
 (let (($x3095 (= cell_7_8 7)))
 (let (($x1862 (= cell_7_8 6)))
 (let (($x525 (= cell_7_8 5)))
 (let (($x1114 (= cell_7_8 4)))
 (let (($x6711 (= cell_7_8 3)))
 (let (($x3381 (= cell_7_8 2)))
 (let (($x3610 (= cell_7_8 1)))
 (or $x3610 $x3381 $x6711 $x1114 $x525 $x1862 $x3095 $x1805 $x1525)))))))))))
(assert
 (let (($x907 (= cell_8_8 1)))
 (or $x907 (= cell_8_8 2) (= cell_8_8 3) (= cell_8_8 4) (= cell_8_8 5) (= cell_8_8 6) (= cell_8_8 7) (= cell_8_8 8) (= cell_8_8 9))))
(assert
 (let (($x1710 (= cell_9_8 2)))
 (let (($x2478 (= cell_9_8 1)))
 (or $x2478 $x1710 (= cell_9_8 3) (= cell_9_8 4) (= cell_9_8 5) (= cell_9_8 6) (= cell_9_8 7) (= cell_9_8 8) (= cell_9_8 9)))))
(assert
 (let (($x749 (= cell_1_9 9)))
 (let (($x1784 (= cell_1_9 8)))
 (let (($x1232 (= cell_1_9 7)))
 (let (($x825 (= cell_1_9 6)))
 (let (($x3818 (= cell_1_9 5)))
 (let (($x2318 (= cell_1_9 4)))
 (let (($x2792 (= cell_1_9 3)))
 (let (($x1099 (= cell_1_9 2)))
 (let (($x3114 (= cell_1_9 1)))
 (or $x3114 $x1099 $x2792 $x2318 $x3818 $x825 $x1232 $x1784 $x749)))))))))))
(assert
 (let (($x7963 (= cell_2_9 9)))
 (let (($x1024 (= cell_2_9 8)))
 (let (($x2743 (= cell_2_9 7)))
 (let (($x7771 (= cell_2_9 6)))
 (let (($x990 (= cell_2_9 5)))
 (let (($x848 (= cell_2_9 4)))
 (let (($x3966 (= cell_2_9 3)))
 (let (($x736 (= cell_2_9 2)))
 (let (($x2485 (= cell_2_9 1)))
 (or $x2485 $x736 $x3966 $x848 $x990 $x7771 $x2743 $x1024 $x7963)))))))))))
(assert
 (let (($x1473 (= cell_3_9 9)))
 (let (($x3333 (= cell_3_9 8)))
 (let (($x3496 (= cell_3_9 7)))
 (let (($x1133 (= cell_3_9 6)))
 (let (($x3192 (= cell_3_9 5)))
 (let (($x705 (= cell_3_9 4)))
 (let (($x2590 (= cell_3_9 3)))
 (let (($x1204 (= cell_3_9 2)))
 (let (($x2355 (= cell_3_9 1)))
 (or $x2355 $x1204 $x2590 $x705 $x3192 $x1133 $x3496 $x3333 $x1473)))))))))))
(assert
 (let (($x7563 (= cell_4_9 1)))
 (or $x7563 (= cell_4_9 2) (= cell_4_9 3) (= cell_4_9 4) (= cell_4_9 5) (= cell_4_9 6) (= cell_4_9 7) (= cell_4_9 8) (= cell_4_9 9))))
(assert
 (let (($x4189 (= cell_5_9 2)))
 (let (($x3974 (= cell_5_9 1)))
 (or $x3974 $x4189 (= cell_5_9 3) (= cell_5_9 4) (= cell_5_9 5) (= cell_5_9 6) (= cell_5_9 7) (= cell_5_9 8) (= cell_5_9 9)))))
(assert
 (let (($x3071 (= cell_6_9 2)))
 (let (($x1252 (= cell_6_9 1)))
 (or $x1252 $x3071 (= cell_6_9 3) (= cell_6_9 4) (= cell_6_9 5) (= cell_6_9 6) (= cell_6_9 7) (= cell_6_9 8) (= cell_6_9 9)))))
(assert
 (let (($x7762 (= cell_7_9 9)))
 (let (($x2933 (= cell_7_9 8)))
 (let (($x1326 (= cell_7_9 7)))
 (let (($x2987 (= cell_7_9 6)))
 (let (($x413 (= cell_7_9 5)))
 (let (($x1388 (= cell_7_9 4)))
 (let (($x478 (= cell_7_9 3)))
 (let (($x1198 (= cell_7_9 2)))
 (let (($x1875 (= cell_7_9 1)))
 (or $x1875 $x1198 $x478 $x1388 $x413 $x2987 $x1326 $x2933 $x7762)))))))))))
(assert
 (let (($x6918 (= cell_8_9 2)))
 (let (($x6546 (= cell_8_9 1)))
 (or $x6546 $x6918 (= cell_8_9 3) (= cell_8_9 4) (= cell_8_9 5) (= cell_8_9 6) (= cell_8_9 7) (= cell_8_9 8) (= cell_8_9 9)))))
(assert
 (let (($x3451 (= cell_9_9 1)))
 (or $x3451 (= cell_9_9 2) (= cell_9_9 3) (= cell_9_9 4) (= cell_9_9 5) (= cell_9_9 6) (= cell_9_9 7) (= cell_9_9 8) (= cell_9_9 9))))
(assert
 (and (distinct cell_1_1 cell_1_2 cell_1_3 cell_1_4 cell_1_5 cell_1_6 cell_1_7 cell_1_8 cell_1_9) true))
(assert
 (and (distinct cell_2_1 cell_2_2 cell_2_3 cell_2_4 cell_2_5 cell_2_6 cell_2_7 cell_2_8 cell_2_9) true))
(assert
 (and (distinct cell_3_1 cell_3_2 cell_3_3 cell_3_4 cell_3_5 cell_3_6 cell_3_7 cell_3_8 cell_3_9) true))
(assert
 (and (distinct cell_4_1 cell_4_2 cell_4_3 cell_4_4 cell_4_5 cell_4_6 cell_4_7 cell_4_8 cell_4_9) true))
(assert
 (and (distinct cell_5_1 cell_5_2 cell_5_3 cell_5_4 cell_5_5 cell_5_6 cell_5_7 cell_5_8 cell_5_9) true))
(assert
 (and (distinct cell_6_1 cell_6_2 cell_6_3 cell_6_4 cell_6_5 cell_6_6 cell_6_7 cell_6_8 cell_6_9) true))
(assert
 (and (distinct cell_7_1 cell_7_2 cell_7_3 cell_7_4 cell_7_5 cell_7_6 cell_7_7 cell_7_8 cell_7_9) true))
(assert
 (and (distinct cell_8_1 cell_8_2 cell_8_3 cell_8_4 cell_8_5 cell_8_6 cell_8_7 cell_8_8 cell_8_9) true))
(assert
 (and (distinct cell_9_1 cell_9_2 cell_9_3 cell_9_4 cell_9_5 cell_9_6 cell_9_7 cell_9_8 cell_9_9) true))
(assert
 (and (distinct cell_1_1 cell_2_1 cell_3_1 cell_4_1 cell_5_1 cell_6_1 cell_7_1 cell_8_1 cell_9_1) true))
(assert
 (and (distinct cell_1_2 cell_2_2 cell_3_2 cell_4_2 cell_5_2 cell_6_2 cell_7_2 cell_8_2 cell_9_2) true))
(assert
 (and (distinct cell_1_3 cell_2_3 cell_3_3 cell_4_3 cell_5_3 cell_6_3 cell_7_3 cell_8_3 cell_9_3) true))
(assert
 (and (distinct cell_1_4 cell_2_4 cell_3_4 cell_4_4 cell_5_4 cell_6_4 cell_7_4 cell_8_4 cell_9_4) true))
(assert
 (and (distinct cell_1_5 cell_2_5 cell_3_5 cell_4_5 cell_5_5 cell_6_5 cell_7_5 cell_8_5 cell_9_5) true))
(assert
 (and (distinct cell_1_6 cell_2_6 cell_3_6 cell_4_6 cell_5_6 cell_6_6 cell_7_6 cell_8_6 cell_9_6) true))
(assert
 (and (distinct cell_1_7 cell_2_7 cell_3_7 cell_4_7 cell_5_7 cell_6_7 cell_7_7 cell_8_7 cell_9_7) true))
(assert
 (and (distinct cell_1_8 cell_2_8 cell_3_8 cell_4_8 cell_5_8 cell_6_8 cell_7_8 cell_8_8 cell_9_8) true))
(assert
 (and (distinct cell_1_9 cell_2_9 cell_3_9 cell_4_9 cell_5_9 cell_6_9 cell_7_9 cell_8_9 cell_9_9) true))
(assert
 (and (distinct cell_1_1 cell_1_2 cell_1_3 cell_2_1 cell_2_2 cell_2_3 cell_3_1 cell_3_2 cell_3_3) true))
(assert
 (and (distinct cell_1_4 cell_1_5 cell_1_6 cell_2_4 cell_2_5 cell_2_6 cell_3_4 cell_3_5 cell_3_6) true))
(assert
 (and (distinct cell_1_7 cell_1_8 cell_1_9 cell_2_7 cell_2_8 cell_2_9 cell_3_7 cell_3_8 cell_3_9) true))
(assert
 (and (distinct cell_4_1 cell_4_2 cell_4_3 cell_5_1 cell_5_2 cell_5_3 cell_6_1 cell_6_2 cell_6_3) true))
(assert
 (and (distinct cell_4_4 cell_4_5 cell_4_6 cell_5_4 cell_5_5 cell_5_6 cell_6_4 cell_6_5 cell_6_6) true))
(assert
 (and (distinct cell_4_7 cell_4_8 cell_4_9 cell_5_7 cell_5_8 cell_5_9 cell_6_7 cell_6_8 cell_6_9) true))
(assert
 (and (distinct cell_7_1 cell_7_2 cell_7_3 cell_8_1 cell_8_2 cell_8_3 cell_9_1 cell_9_2 cell_9_3) true))
(assert
 (and (distinct cell_7_4 cell_7_5 cell_7_6 cell_8_4 cell_8_5 cell_8_6 cell_9_4 cell_9_5 cell_9_6) true))
(assert
 (and (distinct cell_7_7 cell_7_8 cell_7_9 cell_8_7 cell_8_8 cell_8_9 cell_9_7 cell_9_8 cell_9_9) true))
(assert
 (let (($x1230 (and (distinct cell_5_9 cell_6_8 cell_7_7 cell_8_6) true)))
 (let (($x311 (and (distinct cell_2_9 cell_3_8 cell_4_7 cell_5_6 cell_6_5 cell_7_4 cell_8_3 cell_9_2) true)))
 (let (($x1976 (and (distinct cell_1_8 cell_2_7 cell_3_6 cell_4_5 cell_5_4 cell_6_3 cell_7_2 cell_8_1) true)))
 (let (($x7634 (and (distinct cell_1_5 cell_2_4 cell_3_3 cell_4_2) true)))
 (let (($x1290 (and (distinct cell_5_1 cell_6_2 cell_7_3 cell_8_4) true)))
 (let (($x1822 (and (distinct cell_2_1 cell_3_2 cell_4_3 cell_5_4 cell_6_5 cell_7_6 cell_8_7 cell_9_8) true)))
 (let (($x1783 (and (distinct cell_1_2 cell_2_3 cell_3_4 cell_4_5 cell_5_6 cell_6_7 cell_7_8 cell_8_9) true)))
 (let (($x3463 (and (distinct cell_1_5 cell_2_6 cell_3_7 cell_4_8) true)))
 (and $x3463 $x1783 $x1822 $x1290 $x7634 $x1976 $x311 $x1230))))))))))
(assert
 (= cell_7_9 2))
(check-sat)
